<number of tasks>
45

<cycle time>
138

<task times>
1 9
2 9
3 10
4 10
5 17
6 17
7 13
8 13
9 20
10 20
11 10
12 11
13 6
14 22
15 11
16 19
17 12
18 3
19 7
20 4
21 55
22 14
23 27
24 29
25 26
26 6
27 5
28 24
29 4
30 5
31 7
32 4
33 15
34 3
35 7
36 9
37 4
38 7
39 5
40 4
41 21
42 12
43 6
44 5
45 5

<precedence relations>
1,3
1,7
2,4
2,8
3,5
4,6
5,9
6,10
7,9
7,14
8,10
8,14
9,41
10,41
11,13
12,13
12,37
13,14
13,15
14,17
14,25
14,29
14,30
14,31
14,32
15,16
15,18
15,23
15,24
16,19
17,26
17,27
18,19
19,20
19,33
20,21
21,22
22,28
23,33
24,33
25,26
26,38
27,28
27,33
28,38
29,41
30,41
31,41
32,41
33,34
33,35
33,36
34,38
35,40
36,38
37,43
38,40
39,41
40,41
41,42
42,44
42,45

<setup times forward>
1,2:4
1,3:2
1,4:1
1,6:3
1,7:1
1,8:5
1,10:2
1,11:6
1,12:1
1,13:1
1,15:7
1,16:6
1,18:2
1,19:1
1,20:3
1,21:3
1,22:5
1,23:2
1,24:2
1,37:6
1,39:2
2,1:4
2,3:6
2,4:3
2,5:3
2,7:5
2,8:9
2,9:2
2,11:10
2,12:5
2,13:3
2,15:11
2,16:10
2,18:6
2,19:3
2,20:1
2,21:1
2,22:9
2,23:2
2,24:6
2,37:10
2,39:6
2,43:4
3,2:6
3,4:3
3,5:3
3,6:1
3,7:1
3,8:3
3,11:4
3,12:1
3,13:3
3,14:5
3,15:5
3,16:4
3,17:6
3,19:3
3,20:5
3,21:5
3,22:3
3,23:4
3,25:1
3,26:3
3,27:5
3,28:3
3,29:4
3,30:1
3,31:5
3,32:6
3,33:2
3,34:2
3,35:5
3,36:3
3,37:4
3,38:6
3,40:3
3,43:2
4,1:1
4,3:3
4,6:4
4,7:2
4,8:6
4,9:1
4,11:7
4,12:2
4,14:2
4,15:8
4,16:7
4,17:3
4,18:3
4,20:2
4,21:2
4,22:6
4,23:1
4,24:3
4,25:4
4,26:6
4,27:8
4,29:7
4,30:2
4,31:2
4,32:3
4,33:1
4,34:1
4,35:8
4,37:7
4,38:3
4,39:3
4,40:6
4,43:1
5,2:3
5,6:4
5,7:2
5,8:6
5,9:1
5,10:3
5,11:7
5,12:2
5,14:2
5,15:8
5,16:7
5,17:3
5,18:3
5,20:2
5,21:2
5,22:6
5,23:1
5,24:3
5,25:4
5,26:6
5,27:8
5,29:7
5,30:2
5,31:2
5,32:3
5,33:1
5,34:1
5,35:8
5,37:7
5,38:3
5,39:3
5,40:6
5,43:1
6,1:3
6,3:1
6,5:4
6,7:2
6,8:2
6,9:5
6,10:1
6,11:3
6,12:2
6,13:4
6,14:6
6,15:4
6,16:3
6,17:7
6,18:1
6,19:4
6,20:6
6,21:6
6,22:2
6,23:5
6,24:1
6,26:2
6,27:4
6,28:4
6,29:3
6,30:2
6,31:6
6,32:7
6,33:3
6,34:3
6,35:4
6,36:4
6,37:3
6,38:7
6,39:1
6,40:2
6,43:3
7,2:5
7,3:1
7,4:2
7,5:2
7,6:2
7,8:4
7,9:3
7,10:1
7,11:5
7,13:2
7,14:4
7,15:6
7,16:5
7,18:1
7,19:2
7,20:4
7,21:4
7,22:4
7,23:3
7,24:1
7,37:5
7,39:1
7,43:1
8,1:5
8,3:3
8,4:6
8,5:6
8,6:2
8,7:4
8,9:7
8,10:3
8,11:1
8,12:4
8,13:6
8,14:8
8,15:2
8,16:1
8,18:3
8,19:6
8,20:8
8,21:8
8,23:7
8,24:3
8,37:1
8,39:3
8,43:5
9,2:2
9,4:1
9,6:5
9,8:7
9,10:4
9,11:8
9,12:3
9,13:1
9,14:1
9,15:9
9,16:8
9,17:2
9,18:4
9,19:1
9,20:1
9,21:1
9,22:7
9,24:4
9,25:5
9,26:7
9,27:9
9,28:1
9,29:8
9,30:3
9,31:1
9,32:2
9,33:2
9,34:2
9,35:9
9,36:1
9,37:8
9,38:2
9,39:4
9,40:7
9,41:8
9,43:2
10,1:2
10,5:3
10,7:1
10,9:4
10,11:4
10,12:1
10,13:3
10,14:5
10,15:5
10,16:4
10,17:6
10,19:3
10,20:5
10,21:5
10,22:3
10,23:4
10,25:1
10,26:3
10,27:5
10,28:3
10,29:4
10,30:1
10,31:5
10,32:6
10,33:2
10,34:2
10,35:5
10,36:3
10,37:4
10,38:6
10,40:3
10,41:4
10,43:2
11,1:6
11,2:10
11,3:4
11,4:7
11,5:7
11,6:3
11,7:5
11,8:1
11,9:8
11,10:4
11,12:5
11,13:7
11,39:4
11,43:6
12,1:1
12,2:5
12,3:1
12,4:2
12,5:2
12,6:2
12,8:4
12,9:3
12,10:1
12,11:5
12,13:2
12,37:5
12,39:1
13,1:1
13,2:3
13,3:3
13,6:4
13,7:2
13,8:6
13,9:1
13,10:3
13,14:2
13,15:8
13,37:7
13,39:3
13,43:1
14,3:5
14,4:2
14,5:2
14,6:6
14,9:1
14,10:5
14,15:10
14,16:9
14,17:1
14,18:5
14,19:2
14,22:8
14,23:1
14,24:5
14,25:6
14,29:9
14,30:4
14,32:1
14,37:9
14,39:5
14,43:3
15,1:7
15,2:11
15,3:5
15,4:8
15,5:8
15,6:4
15,7:6
15,8:2
15,9:9
15,10:5
15,14:10
15,16:1
15,17:11
15,18:5
15,23:9
15,24:5
15,25:4
15,26:2
15,29:1
15,30:6
15,31:10
15,32:11
15,37:1
15,39:5
15,43:7
16,1:6
16,2:10
16,3:4
16,4:7
16,5:7
16,6:3
16,7:5
16,8:1
16,9:8
16,10:4
16,14:9
16,17:10
16,18:4
16,19:7
16,23:8
16,24:4
16,25:3
16,26:1
16,27:1
16,30:5
16,31:9
16,32:10
16,39:4
16,43:6
17,3:6
17,4:3
17,5:3
17,6:7
17,9:2
17,10:6
17,15:11
17,16:10
17,18:6
17,19:3
17,20:1
17,21:1
17,22:9
17,23:2
17,24:6
17,25:7
17,26:9
17,27:11
17,29:10
17,30:5
17,31:1
17,37:10
17,39:6
17,43:4
18,1:2
18,2:6
18,4:3
18,5:3
18,6:1
18,7:1
18,8:3
18,9:4
18,14:5
18,16:4
18,17:6
18,19:3
18,23:4
18,25:1
18,26:3
18,27:5
18,29:4
18,30:1
18,31:5
18,32:6
18,37:4
18,43:2
19,1:1
19,2:3
19,3:3
19,6:4
19,7:2
19,8:6
19,9:1
19,10:3
19,14:2
19,17:3
19,20:2
19,23:1
19,24:3
19,25:4
19,26:6
19,27:8
19,29:7
19,30:2
19,31:2
19,32:3
19,33:1
19,37:7
19,39:3
19,43:1
20,1:3
20,2:1
20,3:5
20,4:2
20,5:2
20,6:6
20,7:4
20,8:8
20,9:1
20,10:5
20,17:1
20,23:1
20,24:5
20,25:6
20,26:8
20,27:10
20,29:9
20,30:4
20,32:1
20,33:3
20,34:3
20,35:10
20,36:2
20,37:9
20,39:5
20,43:3
21,1:3
21,2:1
21,3:5
21,4:2
21,5:2
21,6:6
21,7:4
21,8:8
21,9:1
21,10:5
21,17:1
21,22:8
21,23:1
21,24:5
21,25:6
21,26:8
21,27:10
21,29:9
21,30:4
21,32:1
21,33:3
21,34:3
21,35:10
21,36:2
21,37:9
21,39:5
21,43:3
22,1:5
22,2:9
22,3:3
22,4:6
22,5:6
22,6:2
22,7:4
22,9:7
22,10:3
22,14:8
22,17:9
22,23:7
22,24:3
22,25:2
22,27:2
22,28:6
22,29:1
22,30:4
22,31:8
22,32:9
22,33:5
22,34:5
22,35:2
22,36:6
22,37:1
22,39:3
22,43:5
23,1:2
23,2:2
23,3:4
23,4:1
23,5:1
23,6:5
23,7:3
23,8:7
23,10:4
23,14:1
23,16:8
23,17:2
23,18:4
23,19:1
23,20:1
23,21:1
23,22:7
23,24:4
23,25:5
23,26:7
23,27:9
23,28:1
23,29:8
23,30:3
23,31:1
23,32:2
23,33:2
23,37:8
23,39:4
23,43:2
24,1:2
24,2:6
24,4:3
24,5:3
24,6:1
24,7:1
24,8:3
24,9:4
24,14:5
24,16:4
24,17:6
24,19:3
24,20:5
24,21:5
24,22:3
24,23:4
24,25:1
24,26:3
24,27:5
24,28:3
24,29:4
24,30:1
24,31:5
24,32:6
24,33:2
24,37:4
24,43:2
25,3:1
25,4:4
25,5:4
25,9:5
25,10:1
25,15:4
25,16:3
25,17:7
25,18:1
25,19:4
25,20:6
25,21:6
25,22:2
25,23:5
25,24:1
25,26:2
25,27:4
25,28:4
25,29:3
25,30:2
25,31:6
25,32:7
25,33:3
25,34:3
25,35:4
25,36:4
25,37:3
25,39:1
25,43:3
26,3:3
26,4:6
26,5:6
26,6:2
26,9:7
26,10:3
26,15:2
26,16:1
26,18:3
26,19:6
26,20:8
26,21:8
26,23:7
26,24:3
26,27:2
26,28:6
26,29:1
26,30:4
26,31:8
26,32:9
26,33:5
26,34:5
26,35:2
26,36:6
26,37:1
26,38:9
26,39:3
26,43:5
27,3:5
27,4:8
27,5:8
27,6:4
27,9:9
27,10:5
27,16:1
27,18:5
27,19:8
27,20:10
27,21:10
27,22:2
27,23:9
27,24:5
27,25:4
27,26:2
27,28:8
27,29:1
27,30:6
27,31:10
27,32:11
27,33:7
27,37:1
27,39:5
27,43:7
28,3:3
28,6:4
28,9:1
28,10:3
28,23:1
28,24:3
28,25:4
28,26:6
28,29:7
28,30:2
28,31:2
28,32:3
28,33:1
28,34:1
28,35:8
28,37:7
28,38:3
28,39:3
28,43:1
29,3:4
29,4:7
29,5:7
29,6:3
29,9:8
29,10:4
29,15:1
29,17:10
29,18:4
29,19:7
29,20:9
29,21:9
29,22:1
29,23:8
29,24:4
29,25:3
29,26:1
29,27:1
29,28:7
29,30:5
29,31:9
29,32:10
29,33:6
29,34:6
29,35:1
29,36:7
29,38:10
29,39:4
29,40:1
29,43:6
30,3:1
30,4:2
30,5:2
30,6:2
30,9:3
30,10:1
30,15:6
30,16:5
30,17:5
30,18:1
30,19:2
30,20:4
30,21:4
30,22:4
30,23:3
30,24:1
30,25:2
30,26:4
30,27:6
30,28:2
30,29:5
30,31:4
30,32:5
30,33:1
30,34:1
30,35:6
30,36:2
30,37:5
30,38:5
30,39:1
30,40:4
30,41:5
30,43:1
31,3:5
31,4:2
31,5:2
31,6:6
31,9:1
31,10:5
31,15:10
31,16:9
31,17:1
31,18:5
31,19:2
31,22:8
31,23:1
31,24:5
31,25:6
31,26:8
31,27:10
31,28:2
31,29:9
31,30:4
31,32:1
31,33:3
31,34:3
31,35:10
31,36:2
31,37:9
31,38:1
31,39:5
31,40:8
31,41:9
31,43:3
32,3:6
32,4:3
32,5:3
32,6:7
32,9:2
32,10:6
32,15:11
32,16:10
32,18:6
32,19:3
32,20:1
32,21:1
32,22:9
32,23:2
32,24:6
32,25:7
32,26:9
32,27:11
32,28:3
32,29:10
32,30:5
32,31:1
32,33:4
32,34:4
32,35:11
32,36:3
32,37:10
32,39:6
32,40:9
32,41:10
32,43:4
33,3:2
33,4:1
33,5:1
33,6:3
33,9:2
33,10:2
33,20:3
33,21:3
33,22:5
33,25:3
33,26:5
33,28:1
33,29:6
33,30:1
33,31:3
33,32:4
33,35:7
33,36:1
33,37:6
33,39:2
34,3:2
34,4:1
34,5:1
34,6:3
34,9:2
34,10:2
34,20:3
34,21:3
34,22:5
34,25:3
34,26:5
34,28:1
34,29:6
34,30:1
34,31:3
34,32:4
34,35:7
34,36:1
34,37:6
34,38:4
34,39:2
35,3:5
35,4:8
35,5:8
35,6:4
35,9:9
35,10:5
35,20:10
35,21:10
35,22:2
35,25:4
35,26:2
35,28:8
35,29:1
35,30:6
35,31:10
35,32:11
35,34:7
35,36:8
35,37:1
35,38:11
35,39:5
35,40:2
35,43:7
36,3:3
36,6:4
36,9:1
36,10:3
36,20:2
36,21:2
36,22:6
36,25:4
36,26:6
36,29:7
36,30:2
36,31:2
36,32:3
36,34:1
36,35:8
36,37:7
36,38:3
36,39:3
36,43:1
37,1:6
37,2:10
37,3:4
37,4:7
37,5:7
37,6:3
37,7:5
37,8:1
37,9:8
37,10:4
37,13:7
37,14:9
37,15:1
37,17:10
37,18:4
37,19:7
37,20:9
37,21:9
37,22:1
37,23:8
37,24:4
37,25:3
37,26:1
37,27:1
37,28:7
37,30:5
37,31:9
37,32:10
37,33:6
37,34:6
37,35:1
37,36:7
37,38:10
37,39:4
37,40:1
37,42:1
37,43:6
37,44:5
37,45:4
38,3:6
38,4:3
38,5:3
38,6:7
38,9:2
38,10:6
38,29:10
38,30:5
38,31:1
38,35:11
38,37:10
38,39:6
38,40:9
38,43:4
39,1:2
39,2:6
39,4:3
39,5:3
39,6:1
39,7:1
39,8:3
39,9:4
39,11:4
39,12:1
39,13:3
39,14:5
39,15:5
39,16:4
39,17:6
39,19:3
39,20:5
39,21:5
39,22:3
39,23:4
39,25:1
39,26:3
39,27:5
39,28:3
39,29:4
39,30:1
39,31:5
39,32:6
39,33:2
39,34:2
39,35:5
39,36:3
39,37:4
39,38:6
39,40:3
39,41:4
39,43:2
40,3:3
40,4:6
40,5:6
40,6:2
40,9:7
40,10:3
40,29:1
40,30:4
40,31:8
40,32:9
40,37:1
40,39:3
40,41:1
40,43:5
41,42:1
41,43:6
42,37:1
42,43:7
42,44:6
42,45:5
43,2:4
43,3:2
43,4:1
43,5:1
43,6:3
43,7:1
43,8:5
43,9:2
43,10:2
43,11:6
43,13:1
43,14:3
43,15:7
43,16:6
43,17:4
43,18:2
43,19:1
43,20:3
43,21:3
43,22:5
43,23:2
43,24:2
43,25:3
43,26:5
43,27:7
43,28:1
43,29:6
43,30:1
43,31:3
43,32:4
43,35:7
43,36:1
43,38:4
43,39:2
43,40:5
43,41:6
43,42:7
43,44:1
43,45:2
44,37:5
44,43:1
44,45:1
45,37:4
45,43:2
45,44:1

<setup times backward>
1,1:12
1,2:8
1,4:11
1,6:15
1,8:17
1,10:14
1,11:18
1,12:13
1,13:11
1,15:19
1,16:18
1,18:14
1,19:11
1,20:9
1,21:9
1,22:17
1,23:10
1,24:14
1,37:18
1,39:14
1,43:12
2,1:16
2,2:12
2,3:18
2,5:15
2,7:17
2,9:14
2,11:22
2,12:17
2,13:15
2,15:23
2,16:22
2,18:18
2,19:15
2,20:13
2,21:13
2,22:21
2,23:14
2,24:18
2,37:22
2,39:18
2,43:16
3,1:10
3,2:6
3,3:12
3,4:9
3,6:13
3,7:11
3,8:15
3,10:12
3,11:16
3,12:11
3,13:9
3,14:7
3,15:17
3,16:16
3,17:6
3,18:12
3,19:9
3,20:7
3,21:7
3,22:15
3,23:8
3,24:12
3,25:13
3,26:15
3,27:17
3,28:9
3,29:16
3,30:11
3,31:7
3,32:6
3,33:10
3,34:10
3,35:17
3,36:9
3,37:16
3,38:6
3,39:12
3,40:15
3,43:10
4,1:13
4,2:9
4,3:15
4,4:12
4,5:12
4,7:14
4,8:18
4,9:11
4,11:19
4,12:14
4,13:12
4,14:10
4,15:20
4,16:19
4,17:9
4,18:15
4,19:12
4,20:10
4,21:10
4,22:18
4,23:11
4,24:15
4,25:16
4,26:18
4,27:20
4,28:12
4,29:19
4,30:14
4,31:10
4,32:9
4,33:13
4,34:13
4,35:20
4,36:12
4,37:19
4,38:9
4,39:15
4,40:18
4,43:13
5,1:13
5,2:9
5,3:15
5,4:12
5,5:12
5,6:16
5,7:14
5,8:18
5,10:15
5,11:19
5,12:14
5,13:12
5,14:10
5,15:20
5,16:19
5,17:9
5,18:15
5,19:12
5,20:10
5,21:10
5,22:18
5,23:11
5,24:15
5,25:16
5,26:18
5,27:20
5,28:12
5,29:19
5,30:14
5,31:10
5,32:9
5,33:13
5,34:13
5,35:20
5,36:12
5,37:19
5,38:9
5,39:15
5,40:18
5,43:13
6,1:9
6,2:5
6,3:11
6,4:8
6,5:8
6,6:12
6,7:10
6,8:14
6,9:7
6,11:15
6,12:10
6,13:8
6,14:6
6,15:16
6,16:15
6,17:5
6,18:11
6,19:8
6,20:6
6,21:6
6,22:14
6,23:7
6,24:11
6,25:12
6,26:14
6,27:16
6,28:8
6,29:15
6,30:10
6,31:6
6,32:5
6,33:9
6,34:9
6,35:16
6,36:8
6,37:15
6,38:5
6,39:11
6,40:14
6,43:9
7,1:11
7,2:7
7,3:13
7,4:10
7,5:10
7,6:14
7,7:12
7,8:16
7,10:13
7,11:17
7,12:12
7,13:10
7,15:18
7,16:17
7,18:13
7,19:10
7,20:8
7,21:8
7,22:16
7,23:9
7,24:13
7,37:17
7,39:13
7,43:11
8,1:7
8,2:3
8,3:9
8,4:6
8,5:6
8,6:10
8,7:8
8,8:12
8,9:5
8,11:13
8,12:8
8,13:6
8,15:14
8,16:13
8,18:9
8,19:6
8,20:4
8,21:4
8,22:12
8,23:5
8,24:9
8,37:13
8,39:9
8,43:7
9,1:14
9,2:10
9,3:16
9,4:13
9,5:13
9,6:17
9,7:15
9,8:19
9,9:12
9,10:16
9,11:20
9,12:15
9,13:13
9,14:11
9,15:21
9,16:20
9,17:10
9,18:16
9,19:13
9,20:11
9,21:11
9,22:19
9,23:12
9,24:16
9,25:17
9,26:19
9,27:21
9,28:13
9,29:20
9,30:15
9,31:11
9,32:10
9,33:14
9,34:14
9,35:21
9,36:13
9,37:20
9,38:10
9,39:16
9,40:19
9,43:14
10,1:10
10,2:6
10,3:12
10,4:9
10,5:9
10,6:13
10,7:11
10,8:15
10,9:8
10,10:12
10,11:16
10,12:11
10,13:9
10,14:7
10,15:17
10,16:16
10,17:6
10,18:12
10,19:9
10,20:7
10,21:7
10,22:15
10,23:8
10,24:12
10,25:13
10,26:15
10,27:17
10,28:9
10,29:16
10,30:11
10,31:7
10,32:6
10,33:10
10,34:10
10,35:17
10,36:9
10,37:16
10,38:6
10,39:12
10,40:15
10,43:10
11,1:6
11,2:2
11,3:8
11,4:5
11,5:5
11,6:9
11,7:7
11,8:11
11,9:4
11,10:8
11,11:12
11,12:7
11,37:12
11,39:8
11,43:6
12,1:11
12,2:7
12,3:13
12,4:10
12,5:10
12,6:14
12,7:12
12,8:16
12,9:9
12,10:13
12,11:17
12,12:12
12,39:13
13,1:13
13,2:9
13,3:15
13,4:12
13,5:12
13,6:16
13,7:14
13,8:18
13,9:11
13,10:15
13,11:19
13,12:14
13,13:12
13,37:19
13,39:15
13,43:13
14,1:15
14,2:11
14,3:17
14,4:14
14,5:14
14,6:18
14,7:16
14,8:20
14,9:13
14,10:17
14,11:21
14,12:16
14,13:14
14,14:12
14,15:22
14,16:21
14,18:17
14,19:14
14,20:12
14,21:12
14,22:20
14,23:13
14,24:17
14,37:21
14,39:17
14,43:15
15,1:5
15,2:1
15,3:7
15,4:4
15,5:4
15,6:8
15,7:6
15,8:10
15,9:3
15,10:7
15,11:11
15,12:6
15,13:4
15,14:2
15,15:12
15,17:1
15,25:8
15,26:10
15,27:12
15,29:11
15,30:6
15,31:2
15,32:1
15,37:11
15,39:7
15,43:5
16,1:6
16,2:2
16,3:8
16,4:5
16,5:5
16,6:9
16,7:7
16,8:11
16,9:4
16,10:8
16,11:12
16,12:7
16,13:5
16,14:3
16,15:13
16,16:12
16,17:2
16,18:8
16,23:4
16,24:8
16,25:9
16,26:11
16,27:13
16,29:12
16,30:7
16,31:3
16,32:2
16,37:12
16,39:8
16,43:6
17,1:16
17,2:12
17,3:18
17,4:15
17,5:15
17,6:19
17,7:17
17,8:21
17,9:14
17,10:18
17,11:22
17,12:17
17,13:15
17,14:13
17,15:23
17,16:22
17,17:12
17,18:18
17,19:15
17,20:13
17,21:13
17,22:21
17,23:14
17,24:18
17,25:19
17,29:22
17,30:17
17,31:13
17,32:12
17,37:22
17,39:18
17,43:16
18,1:10
18,2:6
18,3:12
18,4:9
18,5:9
18,6:13
18,7:11
18,8:15
18,9:8
18,10:12
18,11:16
18,12:11
18,13:9
18,14:7
18,15:17
18,16:16
18,17:6
18,18:12
18,23:8
18,24:12
18,25:13
18,26:15
18,27:17
18,29:16
18,30:11
18,31:7
18,32:6
18,37:16
18,39:12
18,43:10
19,1:13
19,2:9
19,3:15
19,4:12
19,5:12
19,6:16
19,7:14
19,8:18
19,9:11
19,10:15
19,11:19
19,12:14
19,13:12
19,14:10
19,15:20
19,16:19
19,17:9
19,18:15
19,19:12
19,23:11
19,24:15
19,25:16
19,26:18
19,27:20
19,29:19
19,30:14
19,31:10
19,32:9
19,37:19
19,39:15
19,43:13
20,1:15
20,2:11
20,3:17
20,4:14
20,5:14
20,6:18
20,7:16
20,8:20
20,9:13
20,10:17
20,11:21
20,12:16
20,13:14
20,14:12
20,15:22
20,16:21
20,17:11
20,18:17
20,19:14
20,20:12
20,23:13
20,24:17
20,25:18
20,26:20
20,27:22
20,29:21
20,30:16
20,31:12
20,32:11
20,33:15
20,34:15
20,35:22
20,36:14
20,37:21
20,39:17
20,43:15
21,1:15
21,2:11
21,3:17
21,4:14
21,5:14
21,6:18
21,7:16
21,8:20
21,9:13
21,10:17
21,11:21
21,12:16
21,13:14
21,14:12
21,15:22
21,16:21
21,17:11
21,18:17
21,19:14
21,20:12
21,21:12
21,23:13
21,24:17
21,25:18
21,26:20
21,27:22
21,29:21
21,30:16
21,31:12
21,32:11
21,33:15
21,34:15
21,35:22
21,36:14
21,37:21
21,39:17
21,43:15
22,1:7
22,2:3
22,3:9
22,4:6
22,5:6
22,6:10
22,7:8
22,8:12
22,9:5
22,10:9
22,11:13
22,12:8
22,13:6
22,14:4
22,15:14
22,16:13
22,17:3
22,18:9
22,19:6
22,20:4
22,21:4
22,22:12
22,23:5
22,24:9
22,25:10
22,26:12
22,27:14
22,29:13
22,30:8
22,31:4
22,32:3
22,33:7
22,34:7
22,35:14
22,36:6
22,37:13
22,39:9
22,43:7
23,1:14
23,2:10
23,3:16
23,4:13
23,5:13
23,6:17
23,7:15
23,8:19
23,9:12
23,10:16
23,11:20
23,12:15
23,13:13
23,14:11
23,15:21
23,16:20
23,17:10
23,18:16
23,19:13
23,20:11
23,21:11
23,22:19
23,23:12
23,24:16
23,25:17
23,26:19
23,27:21
23,28:13
23,29:20
23,30:15
23,31:11
23,32:10
23,37:20
23,39:16
23,43:14
24,1:10
24,2:6
24,3:12
24,4:9
24,5:9
24,6:13
24,7:11
24,8:15
24,9:8
24,10:12
24,11:16
24,12:11
24,13:9
24,14:7
24,15:17
24,16:16
24,17:6
24,18:12
24,19:9
24,20:7
24,21:7
24,22:15
24,23:8
24,24:12
24,25:13
24,26:15
24,27:17
24,28:9
24,29:16
24,30:11
24,31:7
24,32:6
24,37:16
24,39:12
24,43:10
25,1:9
25,2:5
25,3:11
25,4:8
25,5:8
25,6:12
25,7:10
25,8:14
25,9:7
25,10:11
25,11:15
25,12:10
25,13:8
25,14:6
25,15:16
25,16:15
25,17:5
25,18:11
25,19:8
25,20:6
25,21:6
25,22:14
25,23:7
25,24:11
25,25:12
25,27:16
25,28:8
25,29:15
25,30:10
25,31:6
25,32:5
25,33:9
25,34:9
25,35:16
25,36:8
25,37:15
25,39:11
25,43:9
26,1:7
26,2:3
26,3:9
26,4:6
26,5:6
26,6:10
26,7:8
26,8:12
26,9:5
26,10:9
26,11:13
26,12:8
26,13:6
26,14:4
26,15:14
26,16:13
26,17:3
26,18:9
26,19:6
26,20:4
26,21:4
26,22:12
26,23:5
26,24:9
26,25:10
26,26:12
26,27:14
26,28:6
26,29:13
26,30:8
26,31:4
26,32:3
26,33:7
26,34:7
26,35:14
26,36:6
26,37:13
26,39:9
26,43:7
27,1:5
27,2:1
27,3:7
27,4:4
27,5:4
27,6:8
27,7:6
27,8:10
27,9:3
27,10:7
27,11:11
27,12:6
27,13:4
27,14:2
27,15:12
27,16:11
27,17:1
27,18:7
27,19:4
27,20:2
27,21:2
27,22:10
27,23:3
27,24:7
27,25:8
27,26:10
27,27:12
27,29:11
27,30:6
27,31:2
27,32:1
27,37:11
27,39:7
27,43:5
28,1:13
28,2:9
28,3:15
28,4:12
28,5:12
28,6:16
28,7:14
28,8:18
28,9:11
28,10:15
28,11:19
28,12:14
28,13:12
28,14:10
28,15:20
28,16:19
28,17:9
28,18:15
28,19:12
28,20:10
28,21:10
28,22:18
28,23:11
28,24:15
28,25:16
28,26:18
28,27:20
28,28:12
28,29:19
28,30:14
28,31:10
28,32:9
28,33:13
28,34:13
28,35:20
28,36:12
28,37:19
28,39:15
28,43:13
29,1:6
29,2:2
29,3:8
29,4:5
29,5:5
29,6:9
29,7:7
29,8:11
29,9:4
29,10:8
29,11:12
29,12:7
29,13:5
29,14:3
29,15:13
29,16:12
29,17:2
29,18:8
29,19:5
29,20:3
29,21:3
29,22:11
29,23:4
29,24:8
29,25:9
29,26:11
29,27:13
29,28:5
29,29:12
29,30:7
29,31:3
29,32:2
29,33:6
29,34:6
29,35:13
29,36:5
29,37:12
29,38:2
29,39:8
29,40:11
29,43:6
30,1:11
30,2:7
30,3:13
30,4:10
30,5:10
30,6:14
30,7:12
30,8:16
30,9:9
30,10:13
30,11:17
30,12:12
30,13:10
30,14:8
30,15:18
30,16:17
30,17:7
30,18:13
30,19:10
30,20:8
30,21:8
30,22:16
30,23:9
30,24:13
30,25:14
30,26:16
30,27:18
30,28:10
30,29:17
30,30:12
30,31:8
30,32:7
30,33:11
30,34:11
30,35:18
30,36:10
30,37:17
30,38:7
30,39:13
30,40:16
30,43:11
31,1:15
31,2:11
31,3:17
31,4:14
31,5:14
31,6:18
31,7:16
31,8:20
31,9:13
31,10:17
31,11:21
31,12:16
31,13:14
31,14:12
31,15:22
31,16:21
31,17:11
31,18:17
31,19:14
31,20:12
31,21:12
31,22:20
31,23:13
31,24:17
31,25:18
31,26:20
31,27:22
31,28:14
31,29:21
31,30:16
31,31:12
31,32:11
31,33:15
31,34:15
31,35:22
31,36:14
31,37:21
31,38:11
31,39:17
31,40:20
31,43:15
32,1:16
32,2:12
32,3:18
32,4:15
32,5:15
32,6:19
32,7:17
32,8:21
32,9:14
32,10:18
32,11:22
32,12:17
32,13:15
32,14:13
32,15:23
32,16:22
32,17:12
32,18:18
32,19:15
32,20:13
32,21:13
32,22:21
32,23:14
32,24:18
32,25:19
32,26:21
32,27:23
32,28:15
32,29:22
32,30:17
32,31:13
32,32:12
32,33:16
32,34:16
32,35:23
32,36:15
32,37:22
32,38:12
32,39:18
32,40:21
32,43:16
33,1:12
33,2:8
33,3:14
33,4:11
33,5:11
33,6:15
33,7:13
33,8:17
33,9:10
33,10:14
33,11:18
33,12:13
33,13:11
33,14:9
33,15:19
33,16:18
33,17:8
33,18:14
33,19:11
33,20:9
33,21:9
33,22:17
33,23:10
33,24:14
33,25:15
33,26:17
33,27:19
33,28:11
33,29:18
33,30:13
33,31:9
33,32:8
33,33:12
33,37:18
33,39:14
33,43:12
34,1:12
34,2:8
34,3:14
34,4:11
34,5:11
34,6:15
34,7:13
34,8:17
34,9:10
34,10:14
34,11:18
34,12:13
34,13:11
34,14:9
34,15:19
34,16:18
34,17:8
34,18:14
34,19:11
34,20:9
34,21:9
34,22:17
34,23:10
34,24:14
34,25:15
34,26:17
34,27:19
34,28:11
34,29:18
34,30:13
34,31:9
34,32:8
34,33:12
34,34:12
34,35:19
34,36:11
34,37:18
34,39:14
34,43:12
35,1:5
35,2:1
35,3:7
35,4:4
35,5:4
35,6:8
35,7:6
35,8:10
35,9:3
35,10:7
35,11:11
35,12:6
35,13:4
35,14:2
35,15:12
35,16:11
35,17:1
35,18:7
35,19:4
35,20:2
35,21:2
35,22:10
35,23:3
35,24:7
35,25:8
35,26:10
35,27:12
35,28:4
35,29:11
35,30:6
35,31:2
35,32:1
35,33:5
35,34:5
35,35:12
35,36:4
35,37:11
35,38:1
35,39:7
35,43:5
36,1:13
36,2:9
36,3:15
36,4:12
36,5:12
36,6:16
36,7:14
36,8:18
36,9:11
36,10:15
36,11:19
36,12:14
36,13:12
36,14:10
36,15:20
36,16:19
36,17:9
36,18:15
36,19:12
36,20:10
36,21:10
36,22:18
36,23:11
36,24:15
36,25:16
36,26:18
36,27:20
36,28:12
36,29:19
36,30:14
36,31:10
36,32:9
36,33:13
36,34:13
36,35:20
36,36:12
36,37:19
36,39:15
36,43:13
37,1:6
37,2:2
37,3:8
37,4:5
37,5:5
37,6:9
37,7:7
37,8:11
37,9:4
37,10:8
37,11:12
37,12:7
37,13:5
37,14:3
37,15:13
37,16:12
37,17:2
37,18:8
37,19:5
37,20:3
37,21:3
37,22:11
37,23:4
37,24:8
37,25:9
37,26:11
37,27:13
37,28:5
37,29:12
37,30:7
37,31:3
37,32:2
37,33:6
37,34:6
37,35:13
37,36:5
37,37:12
37,38:2
37,39:8
37,40:11
37,41:12
37,42:13
37,44:7
37,45:8
38,1:16
38,2:12
38,3:18
38,4:15
38,5:15
38,6:19
38,7:17
38,8:21
38,9:14
38,10:18
38,11:22
38,12:17
38,13:15
38,14:13
38,15:23
38,16:22
38,17:12
38,18:18
38,19:15
38,20:13
38,21:13
38,22:21
38,23:14
38,24:18
38,25:19
38,26:21
38,27:23
38,28:15
38,29:22
38,30:17
38,31:13
38,32:12
38,33:16
38,34:16
38,35:23
38,36:15
38,37:22
38,38:12
38,39:18
38,43:16
39,1:10
39,2:6
39,3:12
39,4:9
39,5:9
39,6:13
39,7:11
39,8:15
39,9:8
39,10:12
39,11:16
39,12:11
39,13:9
39,14:7
39,15:17
39,16:16
39,17:6
39,18:12
39,19:9
39,20:7
39,21:7
39,22:15
39,23:8
39,24:12
39,25:13
39,26:15
39,27:17
39,28:9
39,29:16
39,30:11
39,31:7
39,32:6
39,33:10
39,34:10
39,35:17
39,36:9
39,37:16
39,38:6
39,39:12
39,40:15
39,43:10
40,1:7
40,2:3
40,3:9
40,4:6
40,5:6
40,6:10
40,7:8
40,8:12
40,9:5
40,10:9
40,11:13
40,12:8
40,13:6
40,14:4
40,15:14
40,16:13
40,17:3
40,18:9
40,19:6
40,20:4
40,21:4
40,22:12
40,23:5
40,24:9
40,25:10
40,26:12
40,27:14
40,28:6
40,29:13
40,30:8
40,31:4
40,32:3
40,33:7
40,34:7
40,35:14
40,36:6
40,37:13
40,38:3
40,39:9
40,40:12
40,43:7
41,1:6
41,2:2
41,3:8
41,4:5
41,5:5
41,6:9
41,7:7
41,8:11
41,9:4
41,10:8
41,11:12
41,12:7
41,13:5
41,14:3
41,15:13
41,16:12
41,17:2
41,18:8
41,19:5
41,20:3
41,21:3
41,22:11
41,23:4
41,24:8
41,25:9
41,26:11
41,27:13
41,28:5
41,29:12
41,30:7
41,31:3
41,32:2
41,33:6
41,34:6
41,35:13
41,36:5
41,37:12
41,38:2
41,39:8
41,40:11
41,41:12
41,43:6
42,1:5
42,2:1
42,3:7
42,4:4
42,5:4
42,6:8
42,7:6
42,8:10
42,9:3
42,10:7
42,11:11
42,12:6
42,13:4
42,14:2
42,15:12
42,16:11
42,17:1
42,18:7
42,19:4
42,20:2
42,21:2
42,22:10
42,23:3
42,24:7
42,25:8
42,26:10
42,27:12
42,28:4
42,29:11
42,30:6
42,31:2
42,32:1
42,33:5
42,34:5
42,35:12
42,36:4
42,37:11
42,38:1
42,39:7
42,40:10
42,41:11
42,42:12
42,43:5
43,1:12
43,2:8
43,3:14
43,4:11
43,5:11
43,6:15
43,7:13
43,8:17
43,9:10
43,10:14
43,11:18
43,12:13
43,13:11
43,14:9
43,15:19
43,16:18
43,17:8
43,18:14
43,19:11
43,20:9
43,21:9
43,22:17
43,23:10
43,24:14
43,25:15
43,26:17
43,27:19
43,28:11
43,29:18
43,30:13
43,31:9
43,32:8
43,33:12
43,34:12
43,35:19
43,36:11
43,37:18
43,38:8
43,39:14
43,40:17
43,41:18
43,42:19
43,43:12
43,44:13
43,45:14
44,1:11
44,2:7
44,3:13
44,4:10
44,5:10
44,6:14
44,7:12
44,8:16
44,9:9
44,10:13
44,11:17
44,12:12
44,13:10
44,14:8
44,15:18
44,16:17
44,17:7
44,18:13
44,19:10
44,20:8
44,21:8
44,22:16
44,23:9
44,24:13
44,25:14
44,26:16
44,27:18
44,28:10
44,29:17
44,30:12
44,31:8
44,32:7
44,33:11
44,34:11
44,35:18
44,36:10
44,37:17
44,38:7
44,39:13
44,40:16
44,41:17
44,42:18
44,43:11
44,44:12
44,45:13
45,1:10
45,2:6
45,3:12
45,4:9
45,5:9
45,6:13
45,7:11
45,8:15
45,9:8
45,10:12
45,11:16
45,12:11
45,13:9
45,14:7
45,15:17
45,16:16
45,17:6
45,18:12
45,19:9
45,20:7
45,21:7
45,22:15
45,23:8
45,24:12
45,25:13
45,26:15
45,27:17
45,28:9
45,29:16
45,30:11
45,31:7
45,32:6
45,33:10
45,34:10
45,35:17
45,36:9
45,37:16
45,38:6
45,39:12
45,40:15
45,41:16
45,42:17
45,43:10
45,44:11
45,45:12

<end>

<optimal SALBP-1 value>
4


<rand seed>
467321153

